tsp_instances/TSP20/instance63.tsp
NODE_COORD_SECTION
0 178 91
1 125 128
2 177 40
3 11 25
4 63 5
5 181 122
6 117 103
7 14 172
8 63 13
9 157 81
10 144 98
11 60 127
12 101 182
13 112 74
14 93 125
15 123 78
16 84 72
17 73 42
18 7 110
19 23 136
