tsp_instances/TSP20/instance63.opt.tour
TOUR_SECTION
1
3
10
11
7
16
14
17
18
9
5
4
19
20
8
12
15
13
2
6
-1